output/chemosynthesis_ilp.lp
Maximize
  1.558253642208987e-04 Z_72_0_0 + 0.0025086256872085 Z_72_0_1
   + 0.7256381248877826 Z_72_0_2 + 0.000966659 Z_72_0_3
   + 0.1707307649630122 Z_72_0_4 + 0.3420702276668223 Z_204_3_0
   + 0.2313161511856355 Z_204_3_1 + 0.0063067726441902 Z_204_3_2
   + 0.2422612585592405 Z_204_3_3 + 0.0780455899441114 Z_204_3_4
   + 3.8014536072922305e-04 Z_204_1_0 + 0.00227275988448762 Z_204_1_1
   + 0.7265548850446638 Z_204_1_2 + 0.000735353 Z_204_1_3
   + 0.1700568567984618 Z_204_1_4 + 0.00596177132308761 Z_204_4_0
   + 0.00835997725950353 Z_204_4_1 + 0.0465557915479842 Z_204_4_2
   + 0.0156265604028 Z_204_4_3 + 0.8234958994666246 Z_204_4_4
   + 0.00906534492636504 Z_204_5_0 + 0.00390733487501844 Z_204_5_1
   + 0.0122071807611734 Z_204_5_2 + 0.3094707110715177 Z_204_5_3
   + 0.5653494283659253 Z_204_5_4 + 0.00906534492636504 Z_204_2_0
   + 0.00390733487501844 Z_204_2_1 + 0.0122071807611734 Z_204_2_2
   + 0.3094707110715177 Z_204_2_3 + 0.5653494283659253 Z_204_2_4
   + 3.8014536072922305e-04 Z_204_0_0 + 0.00227275988448762 Z_204_0_1
   + 0.7265548850446638 Z_204_0_2 + 0.000735353 Z_204_0_3
   + 0.1700568567984618 Z_204_0_4
Subject To
 constraint1_720: Z_72_0_0 + Z_72_0_1 + Z_72_0_2 + Z_72_0_3 + Z_72_0_4
   <= 1
 constraint1_2043: Z_204_3_0 + Z_204_3_1 + Z_204_3_2 + Z_204_3_3
   + Z_204_3_4 <= 1
 constraint1_2041: Z_204_1_0 + Z_204_1_1 + Z_204_1_2 + Z_204_1_3
   + Z_204_1_4 <= 1
 constraint1_2044: Z_204_4_0 + Z_204_4_1 + Z_204_4_2 + Z_204_4_3
   + Z_204_4_4 <= 1
 constraint1_2045: Z_204_5_0 + Z_204_5_1 + Z_204_5_2 + Z_204_5_3
   + Z_204_5_4 <= 1
 constraint1_2042: Z_204_2_0 + Z_204_2_1 + Z_204_2_2 + Z_204_2_3
   + Z_204_2_4 <= 1
 constraint1_2040: Z_204_0_0 + Z_204_0_1 + Z_204_0_2 + Z_204_0_3
   + Z_204_0_4 <= 1
 constraint2_860: <= 1
 constraint2_861: <= 1
 constraint2_862: <= 1
 constraint2_863: <= 1
 constraint2_720: Z_72_0_0 <= 1
 constraint2_721: Z_72_0_1 <= 1
 constraint2_722: Z_72_0_2 <= 1
 constraint2_723: Z_72_0_3 <= 1
 constraint2_2040: Z_204_3_0 + Z_204_1_0 + Z_204_4_0 + Z_204_5_0
   + Z_204_2_0 + Z_204_0_0 <= 1
 constraint2_2041: Z_204_3_1 + Z_204_1_1 + Z_204_4_1 + Z_204_5_1
   + Z_204_2_1 + Z_204_0_1 <= 1
 constraint2_2042: Z_204_3_2 + Z_204_1_2 + Z_204_4_2 + Z_204_5_2
   + Z_204_2_2 + Z_204_0_2 <= 1
 constraint2_2043: Z_204_3_3 + Z_204_1_3 + Z_204_4_3 + Z_204_5_3
   + Z_204_2_3 + Z_204_0_3 <= 1
 constraint2_6280: <= 1
 constraint2_6281: <= 1
 constraint2_6282: <= 1
 constraint2_6283: <= 1
Bounds
Binaries
 Z_72_0_0 Z_72_0_1 Z_72_0_2 Z_72_0_3 Z_72_0_4 Z_204_3_0 Z_204_3_1 Z_204_3_2
 Z_204_3_3 Z_204_3_4 Z_204_1_0 Z_204_1_1 Z_204_1_2 Z_204_1_3 Z_204_1_4
 Z_204_4_0 Z_204_4_1 Z_204_4_2 Z_204_4_3 Z_204_4_4 Z_204_5_0 Z_204_5_1
 Z_204_5_2 Z_204_5_3 Z_204_5_4 Z_204_2_0 Z_204_2_1 Z_204_2_2 Z_204_2_3
 Z_204_2_4 Z_204_0_0 Z_204_0_1 Z_204_0_2 Z_204_0_3 Z_204_0_4
End
