output/chemosynthesis_ilp.mps
NAME chemosynthesis_srl_ilp
* Max problem is converted into Min one
ROWS
 N  OBJ
 L  constraint1_720
 L  constraint1_2043
 L  constraint1_2041
 L  constraint1_2044
 L  constraint1_2045
 L  constraint1_2042
 L  constraint1_2040
 L  constraint2_860
 L  constraint2_861
 L  constraint2_862
 L  constraint2_863
 L  constraint2_720
 L  constraint2_721
 L  constraint2_722
 L  constraint2_723
 L  constraint2_2040
 L  constraint2_2041
 L  constraint2_2042
 L  constraint2_2043
 L  constraint2_6280
 L  constraint2_6281
 L  constraint2_6282
 L  constraint2_6283
COLUMNS
    MARKER    'MARKER'                 'INTORG'
    Z_72_0_0  OBJ       -1.5582536422089870e-04
    Z_72_0_0  constraint1_720  1
    Z_72_0_0  constraint2_720  1
    Z_72_0_1  OBJ       -2.5086256872085010e-03
    Z_72_0_1  constraint1_720  1
    Z_72_0_1  constraint2_721  1
    Z_72_0_2  OBJ       -7.2563812488778257e-01
    Z_72_0_2  constraint1_720  1
    Z_72_0_2  constraint2_722  1
    Z_72_0_3  OBJ       -9.6665909777597257e-04
    Z_72_0_3  constraint1_720  1
    Z_72_0_3  constraint2_723  1
    Z_72_0_4  OBJ       -1.7073076496301220e-01
    Z_72_0_4  constraint1_720  1
    Z_204_3_0  OBJ       -3.4207022766682227e-01
    Z_204_3_0  constraint1_2043  1
    Z_204_3_0  constraint2_2040  1
    Z_204_3_1  OBJ       -2.3131615118563548e-01
    Z_204_3_1  constraint1_2043  1
    Z_204_3_1  constraint2_2041  1
    Z_204_3_2  OBJ       -6.3067726441901999e-03
    Z_204_3_2  constraint1_2043  1
    Z_204_3_2  constraint2_2042  1
    Z_204_3_3  OBJ       -2.4226125855924055e-01
    Z_204_3_3  constraint1_2043  1
    Z_204_3_3  constraint2_2043  1
    Z_204_3_4  OBJ       -7.8045589944111440e-02
    Z_204_3_4  constraint1_2043  1
    Z_204_1_0  OBJ       -3.8014536072922305e-04
    Z_204_1_0  constraint1_2041  1
    Z_204_1_0  constraint2_2040  1
    Z_204_1_1  OBJ       -2.2727598844876173e-03
    Z_204_1_1  constraint1_2041  1
    Z_204_1_1  constraint2_2041  1
    Z_204_1_2  OBJ       -7.2655488504466381e-01
    Z_204_1_2  constraint1_2041  1
    Z_204_1_2  constraint2_2042  1
    Z_204_1_3  OBJ       -7.3535291165752084e-04
    Z_204_1_3  constraint1_2041  1
    Z_204_1_3  constraint2_2043  1
    Z_204_1_4  OBJ       -1.7005685679846180e-01
    Z_204_1_4  constraint1_2041  1
    Z_204_4_0  OBJ       -5.9617713230876107e-03
    Z_204_4_0  constraint1_2044  1
    Z_204_4_0  constraint2_2040  1
    Z_204_4_1  OBJ       -8.3599772595035343e-03
    Z_204_4_1  constraint1_2044  1
    Z_204_4_1  constraint2_2041  1
    Z_204_4_2  OBJ       -4.6555791547984234e-02
    Z_204_4_2  constraint1_2044  1
    Z_204_4_2  constraint2_2042  1
    Z_204_4_3  OBJ       -1.5626560402800031e-02
    Z_204_4_3  constraint1_2044  1
    Z_204_4_3  constraint2_2043  1
    Z_204_4_4  OBJ       -8.2349589946662460e-01
    Z_204_4_4  constraint1_2044  1
    Z_204_5_0  OBJ       -9.0653449263650397e-03
    Z_204_5_0  constraint1_2045  1
    Z_204_5_0  constraint2_2040  1
    Z_204_5_1  OBJ       -3.9073348750184355e-03
    Z_204_5_1  constraint1_2045  1
    Z_204_5_1  constraint2_2041  1
    Z_204_5_2  OBJ       -1.2207180761173386e-02
    Z_204_5_2  constraint1_2045  1
    Z_204_5_2  constraint2_2042  1
    Z_204_5_3  OBJ       -3.0947071107151775e-01
    Z_204_5_3  constraint1_2045  1
    Z_204_5_3  constraint2_2043  1
    Z_204_5_4  OBJ       -5.6534942836592528e-01
    Z_204_5_4  constraint1_2045  1
    Z_204_2_0  OBJ       -9.0653449263650397e-03
    Z_204_2_0  constraint1_2042  1
    Z_204_2_0  constraint2_2040  1
    Z_204_2_1  OBJ       -3.9073348750184355e-03
    Z_204_2_1  constraint1_2042  1
    Z_204_2_1  constraint2_2041  1
    Z_204_2_2  OBJ       -1.2207180761173386e-02
    Z_204_2_2  constraint1_2042  1
    Z_204_2_2  constraint2_2042  1
    Z_204_2_3  OBJ       -3.0947071107151775e-01
    Z_204_2_3  constraint1_2042  1
    Z_204_2_3  constraint2_2043  1
    Z_204_2_4  OBJ       -5.6534942836592528e-01
    Z_204_2_4  constraint1_2042  1
    Z_204_0_0  OBJ       -3.8014536072922305e-04
    Z_204_0_0  constraint1_2040  1
    Z_204_0_0  constraint2_2040  1
    Z_204_0_1  OBJ       -2.2727598844876173e-03
    Z_204_0_1  constraint1_2040  1
    Z_204_0_1  constraint2_2041  1
    Z_204_0_2  OBJ       -7.2655488504466381e-01
    Z_204_0_2  constraint1_2040  1
    Z_204_0_2  constraint2_2042  1
    Z_204_0_3  OBJ       -7.3535291165752084e-04
    Z_204_0_3  constraint1_2040  1
    Z_204_0_3  constraint2_2043  1
    Z_204_0_4  OBJ       -1.7005685679846180e-01
    Z_204_0_4  constraint1_2040  1
    MARKER    'MARKER'                 'INTEND'
RHS
    RHS1      constraint1_720  1
    RHS1      constraint1_2043  1
    RHS1      constraint1_2041  1
    RHS1      constraint1_2044  1
    RHS1      constraint1_2045  1
    RHS1      constraint1_2042  1
    RHS1      constraint1_2040  1
    RHS1      constraint2_860  1
    RHS1      constraint2_861  1
    RHS1      constraint2_862  1
    RHS1      constraint2_863  1
    RHS1      constraint2_720  1
    RHS1      constraint2_721  1
    RHS1      constraint2_722  1
    RHS1      constraint2_723  1
    RHS1      constraint2_2040  1
    RHS1      constraint2_2041  1
    RHS1      constraint2_2042  1
    RHS1      constraint2_2043  1
    RHS1      constraint2_6280  1
    RHS1      constraint2_6281  1
    RHS1      constraint2_6282  1
    RHS1      constraint2_6283  1
BOUNDS
 UP BND1      Z_72_0_0  1
 UP BND1      Z_72_0_1  1
 UP BND1      Z_72_0_2  1
 UP BND1      Z_72_0_3  1
 UP BND1      Z_72_0_4  1
 UP BND1      Z_204_3_0  1
 UP BND1      Z_204_3_1  1
 UP BND1      Z_204_3_2  1
 UP BND1      Z_204_3_3  1
 UP BND1      Z_204_3_4  1
 UP BND1      Z_204_1_0  1
 UP BND1      Z_204_1_1  1
 UP BND1      Z_204_1_2  1
 UP BND1      Z_204_1_3  1
 UP BND1      Z_204_1_4  1
 UP BND1      Z_204_4_0  1
 UP BND1      Z_204_4_1  1
 UP BND1      Z_204_4_2  1
 UP BND1      Z_204_4_3  1
 UP BND1      Z_204_4_4  1
 UP BND1      Z_204_5_0  1
 UP BND1      Z_204_5_1  1
 UP BND1      Z_204_5_2  1
 UP BND1      Z_204_5_3  1
 UP BND1      Z_204_5_4  1
 UP BND1      Z_204_2_0  1
 UP BND1      Z_204_2_1  1
 UP BND1      Z_204_2_2  1
 UP BND1      Z_204_2_3  1
 UP BND1      Z_204_2_4  1
 UP BND1      Z_204_0_0  1
 UP BND1      Z_204_0_1  1
 UP BND1      Z_204_0_2  1
 UP BND1      Z_204_0_3  1
 UP BND1      Z_204_0_4  1
ENDATA
