output/chemosynthesis_ilp.sol
# Solution for model chemosynthesis_srl_ilp
# Objective value = 3.9185148505962060e+00
Z_72_0_0 0
Z_72_0_1 0
Z_72_0_2 1
Z_72_0_3 0
Z_72_0_4 0
Z_204_3_0 1
Z_204_3_1 0
Z_204_3_2 0
Z_204_3_3 0
Z_204_3_4 0
Z_204_1_0 0
Z_204_1_1 0
Z_204_1_2 0
Z_204_1_3 0
Z_204_1_4 1
Z_204_4_0 0
Z_204_4_1 0
Z_204_4_2 0
Z_204_4_3 0
Z_204_4_4 1
Z_204_5_0 0
Z_204_5_1 0
Z_204_5_2 0
Z_204_5_3 0
Z_204_5_4 1
Z_204_2_0 0
Z_204_2_1 0
Z_204_2_2 0
Z_204_2_3 0
Z_204_2_4 1
Z_204_0_0 0
Z_204_0_1 0
Z_204_0_2 1
Z_204_0_3 0
Z_204_0_4 0
